(set-logic ALL)
(set-option :produce-models true)
(declare-sort BoundSet 0)
(declare-sort UnboundSet 0)
(set-option :finite-model-find true)
(declare-fun Scales (BoundSet BoundSet) Bool)
(declare-fun RockClimbs (BoundSet) Bool)
(assert (not (=> (exists ((a BoundSet)) (exists ((b BoundSet)) (Scales a b))) (exists ((a BoundSet)) (RockClimbs a)))))
(check-sat)
(get-model)